set Horiz := A B C D E;
set Verti := 1 2 3 4 5 6 7 8 9 10;
set InvalidArcs := ((B,3),(B,4)) ((B,4),(B,5)) ((D,8),(D,9));

param NSDist = 15;
param EWDist = 20;

param Demand := 
    A   B   C   D   E
1   3   1   4   2   5
2   3   2   3   3   2
3   2   0   3   3   2
4   5   0   0   3   1
5   3   4   3   3   5
6   2   3   4   4   0
7   1   2   0   1   3
8   0   2   0   3   2
9   3   0   0   0   4
10  3   1   0   4   2;
